&CONTROL
  calculation='scf'
  outdir = '/home/jacopo/PROJECTS/q-e-qe-6.5/QE2pydeph/examples/1'
  prefix = 'nvc'
  pseudo_dir = '/home/jacopo/PROJECTS/q-e-qe-6.5/pseudo'
  tprnfor = .false.
  tstress = .false.
  verbosity = 'low'
  wf_collect = .true.
/
&SYSTEM
  ecutwfc = 60
  ibrav = 0
  nat = 215
  nosym = .true.
  ntyp = 2
  nbnd = 1000
  occupations = 'smearing'
  smearing = 'gaussian'
  degauss = 0.001
  tot_charge = -1
  nosym_evc = .true.
  nspin = 2
  starting_magnetization(1) = 0.5
/
&ELECTRONS
  conv_thr =   3.1200000000d-08
  electron_maxstep = 80
  mixing_beta =   4.0000000000d-01
/
ATOMIC_SPECIES
C      12.0107    C_ONCV_PBE-1.0.upf
N      14.0067    N_ONCV_PBE-1.0.upf
CELL_PARAMETERS (angstrom)
   10.4777045999999991   0.00000000000000000   0.00000000000000000
   0.00000000000000000   10.4777045999999991   0.00000000000000000
   0.00000000000000000   0.00000000000000000   10.4777045999999991
ATOMIC_POSITIONS (crystal)
C 0.01059042725049995  0.0108919284726852 0.0108935627923937
C 0.1771959850098133  0.1776725785273972 0.0109120006719051
C 0.1771965028351816  0.0109119638554189 0.1776737566065831
C 0.0108033571471817  0.1776519413471514 0.1776555272110489
C 0.0939278436556042  0.0942640462667787 0.0942649482823132
C 0.2606879084931192  0.2609230192616027 0.0943151388977644
C 0.2606863120225423  0.0943121299930897 0.2609279979147265
C 0.0942664777675527  0.2611792531379053 0.2611810950609011
C 0.3437911360327829  0.010833474927607 0.0108319748697041
C 0.5104996536962518  0.1774082671030882 0.0105050798719949
C 0.5105008924192459  0.0105049270309396 0.1774095816307342
C 0.3440418487912172  0.177025746138289 0.1770309242217545
C 0.4272211228243207  0.093877661069532 0.0938791885965774
C 0.5940335345286865  0.2605628132147866 0.0937001297871304
C 0.5940330400558792  0.0937001553669616 0.2605642167258069
C 0.4275457421803914  0.259709615863231 0.2597139464380042
C 0.6770750096006168  0.0107127009478799 0.0107156764584478
C 0.8438848454182649  0.1775187316131392 0.0107159707954854
C 0.8438833532505992  0.0107138821086375 0.1775228468025177
C 0.6773195216931819  0.1772781815193408 0.1772791998500191
C 0.760574003480675  0.0940218776014497 0.0940245216943099
C 0.927395847878424  0.2608464745582276 0.0941727274060066
C 0.9273958246918552  0.0941701932604039 0.260850105302502
C 0.7608979742719629  0.2605634248181286 0.260565009691234
C 0.0107208456519023  0.3442323362736167 0.0110106248270818
C 0.1772382694978172  0.5108799703410022 0.0110238554553295
C 0.178087491460625  0.3444358754709633 0.1785157405532999
C 0.0105134970739567  0.5108993261327136 0.1776211471906241
C 0.0942497432128302  0.4276108784065439 0.0946603036154027
C 0.2605213333950546  0.5940757808978011 0.0944973574431206
C 0.2619506565608017  0.4281210373105663 0.2625634789772442
C 0.0937916704347572  0.5938402003400517 0.2609604271655609
C 0.3438113162976515  0.3442578756483129 0.0107476284100306
C 0.5103366949761151  0.5107838351562577 0.0107448597072551
C 0.5108643688092503  0.343732118911456 0.1768404392984869
C 0.3438966497487667  0.5106998005845282 0.1780170885449073
C 0.4271899991784573  0.4274050998581035 0.0941362900372283
C 0.5936708683293818  0.5939093968326324 0.0943111894921266
C 0.5948867757884645  0.427051609482279 0.2597104884492425
C 0.4264763240046294  0.5926486670329468 0.2625609509717763
C 0.6771893548683441  0.3440948396113025 0.0105041986229824
C 0.8437665464294956  0.5108050576227439 0.0108342802348404
C 0.8440937623447278  0.3440962730448489 0.1774102634618683
C 0.6775696790839141  0.5105561665809958 0.1770266017635203
C 0.7607199834000132  0.4273745561976903 0.0938790843950939
C 0.9270372654345355  0.5940891343110238 0.0942433670484595
C 0.9273332511705858  0.4274942883258593 0.2609395279600045
C 0.7602844122805672  0.5939115762040095 0.2609247355169348
C 0.0104088067666029  0.6775291712645287 0.0110172145759672
C 0.1770694574009172  0.8441919347800841 0.0110151075209522
C 0.1772256876213986  0.6773742531473352 0.1778960326736038
C 0.0104972358762609  0.8441020344143406 0.1777012648257253
C 0.093819092596065  0.7607817245490454 0.0944058039551536
C 0.2605092857100781  0.9275637113172914 0.0942406636665382
C 0.260760614858547  0.7608094005705065 0.2609578389412939
C 0.0939204462541545  0.9274965383075248 0.2609988346099328
C 0.3437167612855291  0.6773599188444245 0.0110233056012885
C 0.5103630454733782  0.8438777184646816 0.0110084403813872
C 0.5101593581857831  0.6765112843697071 0.1785128309890948
C 0.3436998068378589  0.8440884826682433 0.1776177662237774
C 0.4269848030091704  0.7603498107319984 0.0946579277725279
C 0.5937485157033288  0.9272015984699673 0.0941713340686209
C 0.5934173581945494  0.7603328371673416 0.2611782241864355
C 0.4271038362096977  0.9272676146455548 0.2609379194229292
C 0.6769224711905486  0.6774011865111084 0.0109100298276416
C 0.8437043842783668  0.844102695238208 0.0108928209659088
C 0.8436868827950462  0.6774030826577284 0.1776736573027483
C 0.6769447144475339  0.8437951922240389 0.1776527470934553
C 0.7603329040912143  0.7606700851318617 0.0942636464520867
C 0.9271640731123467  0.927432676227243 0.0942289136781353
C 0.9271016329740027  0.7606795308966823 0.2609997833529337
C 0.7604264400238526  0.9272033255570304 0.2608498822898141
C 0.0107213239365086  0.0110081992204916 0.3442337261946929
C 0.1780869753114663  0.1785148709696604 0.3444400876953702
C 0.1772379758131875  0.0110205272565945 0.5108800067495803
C 0.0105106015458682  0.1776164003843595 0.5108997587681434
C 0.0942488231407591  0.0946573083024348 0.4276122452811453
C 0.2619497846433328  0.2625622050845949 0.4281237490668013
C 0.2605204021073483  0.0944947525473163 0.5940768069590034
C 0.0937893849902155  0.2609575456520805 0.5938395420154218
C 0.3438115500901062  0.0107449049344062 0.3442612587576082
C 0.5108632147736858  0.176837285310848 0.343736178609612
C 0.5103370672672402  0.0107438019061388 0.5107873386718783
C 0.34389590559157  0.1780156389645939 0.5107033270503212
C 0.427189123657193  0.0941343440103649 0.4274097291953395
C 0.5948874325837402  0.2597088976009292 0.4270537809460012
C 0.5936715767639497  0.0943107124676021 0.5939111512331362
C 0.4264756909806013  0.2625607327285975 0.5926494013049333
C 0.6771868440877777  0.0105040678575292 0.3440971572080058
C 0.8440937208945751  0.1774089699104408 0.344098006889785
C 0.8437651418611284  0.0108312663463624 0.5108076464887007
C 0.6775702129332821  0.177026318033229 0.5105577075072464
C 0.7607186820700763  0.0938774221942659 0.4273763503867552
C 0.9273327048753163  0.2609376195552754 0.4274947939348584
C 0.9270349676746706  0.0942388806626855 0.5940897256431322
C 0.7602855860372978  0.2609252124844479 0.5939107091797224
C 0.0109603938927084  0.3445527704582848 0.3445535003197482
C 0.1787938897637293  0.5114805292738166 0.3463933707735261
C 0.1787906377925471  0.346392060465064 0.5114801387369894
C 0.0108268590035799  0.511025872260197 0.511023922189111
C 0.0944745746609894  0.4279131973682792 0.4279120848455052
C 0.2561794946846176  0.5984217230037876 0.4259289380167227
C 0.2561766444023361  0.4259279828940103 0.5984210712065252
C 0.0939332059206861  0.5943639213013764 0.5943626876500165
C 0.3474683090899456  0.3445654382254625 0.3445685974336081
C 0.5100311822835211  0.5071300214420329 0.3445649241293277
C 0.510031473348657  0.3445646393093171 0.507130588044682
C 0.5920348462910798  0.5926478209384657 0.42812028047457
C 0.5920357202865029  0.4281204827857711 0.5926468456919236
C 0.4286673007086373  0.5984186797403958 0.5984188181713472
C 0.6777590134048848  0.3437327130402003 0.3437344324666355
C 0.843852946046366  0.5107875749061461 0.3442591206576397
C 0.8438540024005139  0.3442596955612259 0.51078583469495
C 0.676581071642405  0.5107008636090795 0.5106998478497451
C 0.7604635837055764  0.4274083402137639 0.4274069045370432
C 0.9271696871362513  0.5941174280530276 0.4276565572226313
C 0.927169914897661  0.4276577226282646 0.5941143649376163
C 0.7601001800568349  0.594077097815018 0.5940766351699306
C 0.0105760219768058  0.6774596286085764 0.3444518808973338
C 0.1771415469355588  0.8440227331001545 0.3444502646055101
C 0.1774721073040063  0.6771263072656076 0.5108188059593152
C 0.0100208501324003  0.8445774567669401 0.5108948574714677
C 0.0931307582858384  0.7614694955932253 0.4280959742466242
C 0.2604833856308954  0.9274273651122912 0.4276561983927252
C 0.2602342272134078  0.7606641537971803 0.594362574112675
C 0.0936910538430296  0.9277056256374173 0.5942441342497886
C 0.3431195087093214  0.6758085842002106 0.3463910598634606
C 0.5100448794784329  0.8436404100488252 0.344551465819708
C 0.5082039800521975  0.6758051033687263 0.5114782227039177
C 0.3435736961228366  0.8437704569343188 0.511023805771257
C 0.4266863996894257  0.7601252251802016 0.4279109396403776
C 0.5936583769976761  0.9272658459202903 0.4274941329383576
C 0.5936374586290123  0.7608066656438228 0.5938391908659586
C 0.4269401328512188  0.9274271866044161 0.5941158342577774
C 0.6760822701336197  0.6765123503117354 0.3444368604919592
C 0.8435894215045916  0.8438797556210653 0.3442335836689048
C 0.843574875301756  0.6773610390570795 0.5108803366534103
C 0.6769777720694184  0.8440861972381015 0.5108983875343674
C 0.7599383804156092  0.76035044021956 0.4276108139849444
C 0.9269319527811208  0.9276670863170011 0.4276050665009293
C 0.9268914983218437  0.7609066100738697 0.5942440511280664
C 0.760356261633296  0.9275597921016208 0.5940896709170532
C 0.0104076729566359  0.0110118660178162 0.6775286535481584
C 0.177223215803239  0.1778930833627878 0.6773733617174683
C 0.1770686574993476  0.0110134330424412 0.8441895350420893
C 0.0104975267960557  0.1776990447513843 0.8441019588461189
C 0.0938168351492108  0.0944025467972139 0.7607798574361183
C 0.2607566677860952  0.2609581892835361 0.7608067916104783
C 0.2605078021551886  0.0942416819045027 0.9275615595133326
C 0.0939202356040623  0.2609982981231397 0.9274971212103886
C 0.3437167188408914  0.0110215036353322 0.6773605583744735
C 0.5101589890662381  0.1785127828435143 0.6765119907039716
C 0.5103639150541394  0.0110089450317472 0.8438786015535106
C 0.3436972029736527  0.1776198531727962 0.8440871076097813
C 0.4269846127270149  0.0946580147999996 0.7603507880206222
C 0.5934174828489213  0.2611774065755669 0.7603322526156037
C 0.593748731472433  0.0941696695602759 0.9272035564965231
C 0.427103214158887  0.2609384112971287 0.9272670087736482
C 0.6769242979998188  0.0109091185466046 0.6774023246317661
C 0.8436866970612186  0.1776729510233771 0.6774024542255235
C 0.8437056738231836  0.0108905325270699 0.8441039858883808
C 0.6769453574887953  0.1776503379434501 0.843795362043492
C 0.7603346407078352  0.0942620544377112 0.7606705644833683
C 0.9271028011588819  0.260999071963284 0.7606786092235365
C 0.9271655590111259  0.0942266843420436 0.9274339424555275
C 0.7604278134512302  0.2608456864735505 0.9272031173106887
C 0.0105763662893486  0.3444519928666368 0.6774580596705516
C 0.177471455761007  0.5108199151166339 0.6771262920420213
C 0.1771393911679383  0.3444512153876551 0.8440220570704047
C 0.0100200838661078  0.5108949131958351 0.8445788236499362
C 0.0931292947604671  0.4280975539982305 0.761469013970457
C 0.2602342988714527  0.5943632679972753 0.7606658106777577
C 0.2604819688212073  0.4276563419230866 0.927429909750438
C 0.0936907279175164  0.5942441456285937 0.9277093054858385
C 0.3431171272127556  0.3463914176340079 0.6758074457195327
C 0.5082044038512811  0.5114780263825185 0.6758059902447368
C 0.5100440154045446  0.34455134958068 0.8436390491980326
C 0.343572419927091  0.5110247765219667 0.8437723618872144
C 0.4266844724255717  0.4279115956927342 0.7601252761110127
C 0.5936370868180106  0.5938376015429861 0.7608067132065611
C 0.5936594317028512  0.4274924514058345 0.9272648639044593
C 0.4269397477848232  0.5941150867419971 0.9274287417728281
C 0.6760830794356787  0.3444360945716576 0.6765108054120397
C 0.8435758411096818  0.5108808711472893 0.6773598145881017
C 0.8435897208225098  0.3442314955159623 0.8438788148654386
C 0.6769786215174185  0.5108979028063448 0.8440862862055378
C 0.7599395362663295  0.4276108049375952 0.7603491875530913
C 0.9268913459890574  0.5942447923712372 0.7609081979586944
C 0.9269318152554665  0.4276024196947827 0.9276675336033601
C 0.7603566215046501  0.5940869725043881 0.9275633731756756
C 0.0104064438685637  0.6774777076858164 0.6774772711122918
C 0.177121168211249  0.8441919813904203 0.677477502069823
C 0.177120258565572  0.6774772027760451 0.84419452088329
C 0.0103823322126671  0.8442141165342734 0.8442167516370809
C 0.0936946746436986  0.7609036115301452 0.7609045573223489
C 0.2603528550821668  0.9277064870620214 0.7609067955094763
C 0.2603524455471345  0.7609083429287367 0.9277080215665251
C 0.0937705798703458  0.9275609360328599 0.9275612287215561
C 0.343777219259053  0.6771252317416834 0.6771248722434888
C 0.5101438715437251  0.8440204721304324 0.6774579640154959
C 0.5101438328628618  0.677457222777577 0.8440207774515234
C 0.3437010229823922  0.8445783852376605 0.8445783452865864
C 0.4264984378562986  0.7614685510672546 0.7614686669430005
C 0.5935967249229849  0.927495543402958 0.760677905709335
C 0.5935962383644809  0.7606774614613502 0.927494664621385
C 0.426992713584906  0.9276670661622113 0.9276666755893936
C 0.6767013037922582  0.6773731535675036 0.6773732956140409
C 0.8435840797122391  0.8441885544495791 0.6775290329948661
C 0.8435836585653224  0.6775271778095969 0.8441919996616568
C 0.6768956000761877  0.8441003349500278 0.8441011091286732
C 0.7601928384166823  0.7607786292697903 0.7607806081301633
C 0.9270375270975889  0.9275590685582673 0.7608272920339513
C 0.9270364952143015  0.7608257798492041 0.9275624354132327
C 0.7603681377786555  0.9274316860442493 0.9274334607933571
N 0.4337822901216687  0.4208158691546133 0.4208175146317515
K_POINTS automatic
1 1 1 0 0 0 